NAME: line_42_24
TYPE: TSP
COMMENT: srandom_42_24
DIMENSION: 42
EDGE_WEIGHT_TYPE: EUC_2D
NODE_COORD_SECTION
1 2591 2360
2 3567 1196
3 3241 3321
4 4855 332
5 1536 2065
6 2270 40
7 1307 2426
8 4291 2289
9 2267 353
10 4394 4234
11 2253 2202
12 1273 365
13 2998 45
14 4425 388
15 3701 1443
16 2282 669
17 4116 4925
18 1252 1004
19 4331 3250
20 2040 296
21 1377 2914
22 2475 3199
23 4437 115
24 2139 1724
25 1090 1062
26 855 2544
27 1846 863
28 1625 3408
29 4680 3007
30 3096 4510
31 1850 1988
32 2049 787
33 4620 4176
34 3751 2732
35 4992 3291
36 4965 2091
37 3402 2634
38 2333 4318
39 3549 2226
40 1597 4524
41 1266 1365
42 3972 272
